c WARNING: for repeatability, setting FPU to use double precision
d VARIABLES            119718       
d CONSTRAINTS          534036       
c ============================[ Problem Statistics ]=============================
c |                                                                             |
c |  Number of variables:        119718                                         |
c |  Number of clauses:          534036                                         |
c |  Parse time:                   0.09 s                                       |
c |                                                                             |
c ============================[ Search Statistics ]==============================
c | Conflicts |          ORIGINAL         |          LEARNT          | Progress |
c |           |    Vars  Clauses Literals |    Limit  Clauses Lit/Cl |          |
c ===============================================================================
c |       100 |  102037   483748  1172414 |   177374      100     43 | 14.769 % |
c |       250 |  102037   483748  1172414 |   195111      250     35 | 14.769 % |
c |       475 |  102037   483748  1172414 |   214622      475     54 | 14.769 % |
c |       812 |  102037   483748  1172414 |   236085      812     60 | 14.769 % |
c |      1318 |  102037   483748  1172414 |   259693     1318     79 | 14.769 % |
c |      2077 |  102037   483748  1172414 |   285663     2077     80 | 14.769 % |
c |      3216 |  102037   483748  1172414 |   314229     3216     98 | 14.769 % |
c |      4924 |  102037   483748  1172414 |   345652     4924     92 | 14.769 % |
c |      7486 |  102037   483748  1172414 |   380217     7486    108 | 14.769 % |
c |     11330 |  102037   483748  1172414 |   418239    11330    121 | 14.769 % |
c |     17096 |  102037   483748  1172414 |   460063    17096    131 | 14.769 % |
c |     25745 |  102037   483748  1172414 |   506069    25745    131 | 14.769 % |
c |     38719 |  102037   483748  1172414 |   556676    38719    153 | 14.769 % |
c |     58180 |  102037   483748  1172414 |   612344    58180    145 | 14.769 % |
c |     87372 |  102037   483748  1172414 |   673578    87372    154 | 14.769 % |
c |    131161 |  102037   483748  1172414 |   740936   131161    158 | 14.769 % |
c |    196845 |  102037   483748  1172414 |   815029   196845    164 | 14.769 % |
c |    295371 |  102037   483748  1172414 |   896532   295371    182 | 14.769 % |
c |    443160 |  102036   483739  1172394 |   986186   443157    186 | 14.770 % |
c |    664843 |  101958   483496  1171834 |  1084804   664467    191 | 14.835 % |
c ===============================================================================
c restarts              : 1481
c conflicts             : 681497         (1404 /sec)
c decisions             : 3081614        (0.00 % random) (6349 /sec)
c propagations          : 1166845956     (2403993 /sec)
c conflict literals     : 128784149      (23.58 % deleted)
d RESTARTS             1481
d FAILURES             681497       
d NODES                3081614      
d BACKTRACKS           3081614      
d PROPAGATIONS         1166845956   
d NOGOODSIZE           188.97 
d MEMORY               628.00 
d TIME                 485.378 

s UNSATISFIABLE
